; benchmark generated from python API
(set-info :status unknown)
(declare-fun strlen_85_64 () (_ BitVec 64))
(declare-fun args_1_8 () (_ BitVec 8))
(declare-fun strlen_83_64 () (_ BitVec 64))
(declare-fun strncmp_ret_84_32 () (_ BitVec 32))
(declare-fun strncmp_ret_86_32 () (_ BitVec 32))
(declare-fun filesize_file_0_/proc/self/loginuid_88_64 () (_ BitVec 64))
(declare-fun syscall_stub_ioctl_94_32 () (_ BitVec 32))
(declare-fun syscall_stub_newfstatat_118_64 () (_ BitVec 64))
(declare-fun syscall_stub_readlink_157_64 () (_ BitVec 64))
(declare-fun mem_7fffffffffef420_167_8 () (_ BitVec 8))
(declare-fun syscall_stub_newfstatat_183_64 () (_ BitVec 64))
(declare-fun mem_7fffffffffef038_268_64 () (_ BitVec 64))
(declare-fun mem_7fffffffffeefa8_269_64 () (_ BitVec 64))
(declare-fun mem_7fffffffffeefa0_287_64 () (_ BitVec 64))
(declare-fun mem_7fffffffffef030_288_64 () (_ BitVec 64))
(declare-fun mem_7fffffffffef048_337_32 () (_ BitVec 32))
(declare-fun mem_7fffffffffeefc8_381_64 () (_ BitVec 64))
(declare-fun mem_7fffffffffef058_382_64 () (_ BitVec 64))
(declare-fun strlen_825_64 () (_ BitVec 64))
(declare-fun mem_7fffffffffef425_823_64 () (_ BitVec 64))
(declare-fun access_2090_32 () (_ BitVec 32))
(declare-fun access_3087_32 () (_ BitVec 32))
(declare-fun mem_2c_3521_264 () (_ BitVec 264))
(declare-fun strlen_3522_64 () (_ BitVec 64))
(declare-fun strlen_4600_64 () (_ BitVec 64))
(declare-fun strlen_7070_64 () (_ BitVec 64))
(declare-fun mem_7fffffffffef740_3703_248 () (_ BitVec 248))
(assert
 (let ((?x751 (bvadd (_ bv576460752303357826 64) strlen_85_64)))
 (let (($x69 (= (_ bv0 8) args_1_8)))
 (let ((?x46 (ite $x69 (_ bv576460752303357826 64) (_ bv576460752303357827 64))))
 (= ?x46 ?x751)))))
(assert
 (let ((?x101 (bvadd (_ bv576460752303357826 64) strlen_83_64)))
 (let (($x69 (= (_ bv0 8) args_1_8)))
 (let ((?x46 (ite $x69 (_ bv576460752303357826 64) (_ bv576460752303357827 64))))
 (= ?x46 ?x101)))))
(assert
 (let (($x104 (bvule (_ bv2 64) strlen_83_64)))
 (let (($x48 (= (_ bv2 64) strlen_83_64)))
 (let (($x122 (or $x48 $x104)))
 (let (($x123 (not $x122)))
 (let (($x57 (= (_ bv45 8) args_1_8)))
 (let (($x121 (not $x57)))
 (or $x121 $x123))))))))
(assert
 (= (_ bv1 32) strncmp_ret_84_32))
(assert
 (= (_ bv1 32) strncmp_ret_86_32))
(assert
 true)
(assert
 (let ((?x1236 ((_ extract 3 0) filesize_file_0_/proc/self/loginuid_88_64)))
 (let (($x1210 (bvsge (_ bv0 64) filesize_file_0_/proc/self/loginuid_88_64)))
 (let ((?x99 (ite $x1210 (_ bv0 4) ?x1236)))
 (let (($x1110 (bvule ?x99 (_ bv12 4))))
 (let (($x119703 (not $x1110)))
 (let ((?x1214 ((_ extract 63 63) filesize_file_0_/proc/self/loginuid_88_64)))
 (let (($x116245 (= (_ bv1 1) ?x1214)))
 (let (($x119835 (not $x116245)))
 (let ((?x1229 ((_ extract 63 4) filesize_file_0_/proc/self/loginuid_88_64)))
 (let (($x523 (= (_ bv0 60) ?x1229)))
 (let (($x516 (or $x1210 $x523)))
 (let (($x119942 (not $x516)))
 (let (($x119586 (or $x119942 $x119835 $x1210 $x119703)))
 (let (($x116912 (not $x119586)))
 (let (($x116860 (= (_ bv0 64) filesize_file_0_/proc/self/loginuid_88_64)))
 (let (($x117248 (or $x116860 $x1210)))
 (let (($x119482 (not $x117248)))
 (let (($x47155 (or $x119942 $x119703 $x119482)))
 (let (($x118344 (not $x47155)))
 (or $x118344 $x116912)))))))))))))))))))))
(assert
 (let (($x1210 (bvsge (_ bv0 64) filesize_file_0_/proc/self/loginuid_88_64)))
 (let ((?x1217 (ite $x1210 (_ bv0 64) filesize_file_0_/proc/self/loginuid_88_64)))
 (let ((?x1236 ((_ extract 3 0) filesize_file_0_/proc/self/loginuid_88_64)))
 (let ((?x99 (ite $x1210 (_ bv0 4) ?x1236)))
 (let (($x1110 (bvule ?x99 (_ bv12 4))))
 (let ((?x1229 ((_ extract 63 4) filesize_file_0_/proc/self/loginuid_88_64)))
 (let (($x523 (= (_ bv0 60) ?x1229)))
 (let (($x516 (or $x1210 $x523)))
 (let (($x975 (and $x516 $x1110)))
 (let ((?x1169 (ite $x975 ?x1217 (_ bv12 64))))
 (bvule ?x1169 (_ bv18446744073709547520 64)))))))))))))
(assert
 (= (_ bv0 32) syscall_stub_ioctl_94_32))
(assert
 (let ((?x40691 ((_ extract 31 0) syscall_stub_newfstatat_118_64)))
 (bvule ?x40691 (_ bv4294963200 32))))
(assert
 (= (_ bv13 64) syscall_stub_readlink_157_64))
(assert
 (= (_ bv47 8) mem_7fffffffffef420_167_8))
(assert
 (let ((?x116322 ((_ extract 31 0) syscall_stub_newfstatat_183_64)))
 (bvule ?x116322 (_ bv4294963200 32))))
(assert
 (= mem_7fffffffffeefa8_269_64 mem_7fffffffffef038_268_64))
(assert
 (= mem_7fffffffffef030_288_64 mem_7fffffffffeefa0_287_64))
(assert
 (let ((?x276913 ((_ extract 15 12) mem_7fffffffffef048_337_32)))
 (= (_ bv2 4) ?x276913)))
(assert
 (= mem_7fffffffffef058_382_64 mem_7fffffffffeefc8_381_64))
(assert
 (let ((?x439441 (bvadd (_ bv576460752303354917 64) strlen_825_64)))
 (let ((?x440459 ((_ extract 7 0) mem_7fffffffffef425_823_64)))
 (let (($x440941 (= (_ bv0 8) ?x440459)))
 (let ((?x116663 (ite $x440941 (_ bv576460752303354924 64) (_ bv576460752303354925 64))))
 (let ((?x438402 ((_ extract 15 8) mem_7fffffffffef425_823_64)))
 (let (($x440942 (= (_ bv0 8) ?x438402)))
 (let ((?x118666 (ite $x440942 (_ bv576460752303354923 64) ?x116663)))
 (let ((?x440881 ((_ extract 23 16) mem_7fffffffffef425_823_64)))
 (let (($x276525 (= (_ bv0 8) ?x440881)))
 (let ((?x115305 (ite $x276525 (_ bv576460752303354922 64) ?x118666)))
 (let ((?x389973 ((_ extract 31 24) mem_7fffffffffef425_823_64)))
 (let (($x390790 (= (_ bv0 8) ?x389973)))
 (let ((?x118419 (ite $x390790 (_ bv576460752303354921 64) ?x115305)))
 (let ((?x277261 ((_ extract 39 32) mem_7fffffffffef425_823_64)))
 (let (($x440855 (= (_ bv0 8) ?x277261)))
 (let ((?x114494 (ite $x440855 (_ bv576460752303354920 64) ?x118419)))
 (let ((?x440607 ((_ extract 47 40) mem_7fffffffffef425_823_64)))
 (let (($x277345 (= (_ bv0 8) ?x440607)))
 (let ((?x116316 (ite $x277345 (_ bv576460752303354919 64) ?x114494)))
 (let ((?x439967 ((_ extract 55 48) mem_7fffffffffef425_823_64)))
 (let (($x440888 (= (_ bv0 8) ?x439967)))
 (let ((?x115490 (ite $x440888 (_ bv576460752303354918 64) ?x116316)))
 (let ((?x440536 ((_ extract 63 56) mem_7fffffffffef425_823_64)))
 (let (($x439895 (= (_ bv0 8) ?x440536)))
 (let ((?x115816 (ite $x439895 (_ bv576460752303354917 64) ?x115490)))
 (= ?x115816 ?x439441)))))))))))))))))))))))))))
(assert
 (let ((?x439228 (bvadd (_ bv1 64) strlen_825_64)))
 (let ((?x440959 ((_ extract 63 4) ?x439228)))
 (= (_ bv0 60) ?x440959))))
(assert
 (let ((?x438914 ((_ extract 3 0) strlen_825_64)))
 (let ((?x439258 (bvadd (_ bv1 4) ?x438914)))
 (bvule ?x439258 (_ bv9 4)))))
(assert
 (let ((?x439228 (bvadd (_ bv1 64) strlen_825_64)))
 (let (($x439956 (bvule (_ bv31 64) strlen_825_64)))
 (let (($x277341 (bvule strlen_825_64 (_ bv18446744073709551614 64))))
 (let (($x438614 (and $x277341 $x439956)))
 (let ((?x441062 (ite $x438614 (_ bv32 64) ?x439228)))
 (bvule (_ bv1 64) ?x441062)))))))
(assert
 (let (($x277341 (bvule strlen_825_64 (_ bv18446744073709551614 64))))
 (let (($x441018 (not $x277341)))
 (let (($x439956 (bvule (_ bv31 64) strlen_825_64)))
 (let (($x439107 (not $x439956)))
 (or $x439107 $x441018))))))
(assert
 (= (_ bv0 32) access_2090_32))
(assert
 (= (_ bv0 32) access_3087_32))
(assert
 (let ((?x560129 ((_ extract 23 16) mem_2c_3521_264)))
 (let (($x560128 (= (_ bv0 8) ?x560129)))
 (not $x560128))))
(assert
 (let ((?x560081 ((_ extract 15 8) mem_2c_3521_264)))
 (= (_ bv0 8) ?x560081)))
(assert
 (let ((?x560127 ((_ extract 31 24) mem_2c_3521_264)))
 (let (($x560126 (= (_ bv0 8) ?x560127)))
 (not $x560126))))
(assert
 (let ((?x560125 ((_ extract 39 32) mem_2c_3521_264)))
 (let (($x560124 (= (_ bv0 8) ?x560125)))
 (not $x560124))))
(assert
 (let ((?x560123 ((_ extract 47 40) mem_2c_3521_264)))
 (let (($x560122 (= (_ bv0 8) ?x560123)))
 (not $x560122))))
(assert
 (let ((?x560118 ((_ extract 55 48) mem_2c_3521_264)))
 (let (($x568065 (= (_ bv0 8) ?x560118)))
 (not $x568065))))
(assert
 (let ((?x571244 ((_ extract 63 56) mem_2c_3521_264)))
 (let (($x571260 (= (_ bv0 8) ?x571244)))
 (not $x571260))))
(assert
 (let ((?x572025 ((_ extract 71 64) mem_2c_3521_264)))
 (let (($x560112 (= (_ bv0 8) ?x572025)))
 (not $x560112))))
(assert
 (let ((?x568054 ((_ extract 79 72) mem_2c_3521_264)))
 (let (($x571390 (= (_ bv0 8) ?x568054)))
 (not $x571390))))
(assert
 (let ((?x549197 ((_ extract 87 80) mem_2c_3521_264)))
 (let (($x571381 (= (_ bv0 8) ?x549197)))
 (not $x571381))))
(assert
 (let ((?x560077 ((_ extract 95 88) mem_2c_3521_264)))
 (let (($x559004 (= (_ bv0 8) ?x560077)))
 (not $x559004))))
(assert
 (let ((?x567903 ((_ extract 103 96) mem_2c_3521_264)))
 (let (($x559448 (= (_ bv0 8) ?x567903)))
 (not $x559448))))
(assert
 (let ((?x559657 ((_ extract 111 104) mem_2c_3521_264)))
 (let (($x560073 (= (_ bv0 8) ?x559657)))
 (not $x560073))))
(assert
 (let ((?x571331 ((_ extract 119 112) mem_2c_3521_264)))
 (let (($x571297 (= (_ bv0 8) ?x571331)))
 (not $x571297))))
(assert
 (let ((?x567971 ((_ extract 127 120) mem_2c_3521_264)))
 (let (($x568030 (= (_ bv0 8) ?x567971)))
 (not $x568030))))
(assert
 (let ((?x560751 ((_ extract 135 128) mem_2c_3521_264)))
 (let (($x560068 (= (_ bv0 8) ?x560751)))
 (not $x560068))))
(assert
 (let ((?x560032 ((_ extract 143 136) mem_2c_3521_264)))
 (let (($x571318 (= (_ bv0 8) ?x560032)))
 (not $x571318))))
(assert
 (let ((?x571299 ((_ extract 151 144) mem_2c_3521_264)))
 (let (($x567978 (= (_ bv0 8) ?x571299)))
 (not $x567978))))
(assert
 (let ((?x571282 ((_ extract 159 152) mem_2c_3521_264)))
 (let (($x568057 (= (_ bv0 8) ?x571282)))
 (not $x568057))))
(assert
 (let ((?x571392 ((_ extract 167 160) mem_2c_3521_264)))
 (let (($x559477 (= (_ bv0 8) ?x571392)))
 (not $x559477))))
(assert
 (let ((?x559097 ((_ extract 175 168) mem_2c_3521_264)))
 (let (($x560091 (= (_ bv0 8) ?x559097)))
 (not $x560091))))
(assert
 (let ((?x551919 ((_ extract 183 176) mem_2c_3521_264)))
 (let (($x568068 (= (_ bv0 8) ?x551919)))
 (not $x568068))))
(assert
 (let ((?x559643 ((_ extract 191 184) mem_2c_3521_264)))
 (let (($x568048 (= (_ bv0 8) ?x559643)))
 (not $x568048))))
(assert
 (let ((?x571243 ((_ extract 199 192) mem_2c_3521_264)))
 (let (($x558910 (= (_ bv0 8) ?x571243)))
 (not $x558910))))
(assert
 (let ((?x571371 ((_ extract 207 200) mem_2c_3521_264)))
 (let (($x571327 (= (_ bv0 8) ?x571371)))
 (not $x571327))))
(assert
 (let ((?x560739 ((_ extract 215 208) mem_2c_3521_264)))
 (let (($x571354 (= (_ bv0 8) ?x560739)))
 (not $x571354))))
(assert
 (let ((?x558838 ((_ extract 223 216) mem_2c_3521_264)))
 (let (($x571302 (= (_ bv0 8) ?x558838)))
 (not $x571302))))
(assert
 (let ((?x571224 ((_ extract 231 224) mem_2c_3521_264)))
 (let (($x571408 (= (_ bv0 8) ?x571224)))
 (not $x571408))))
(assert
 (let ((?x560732 ((_ extract 239 232) mem_2c_3521_264)))
 (let (($x571386 (= (_ bv0 8) ?x560732)))
 (not $x571386))))
(assert
 (let ((?x571435 ((_ extract 247 240) mem_2c_3521_264)))
 (let (($x556640 (= (_ bv0 8) ?x571435)))
 (not $x556640))))
(assert
 (let ((?x558841 ((_ extract 255 248) mem_2c_3521_264)))
 (let (($x560109 (= (_ bv0 8) ?x558841)))
 (not $x560109))))
(assert
 (let ((?x560106 ((_ extract 263 256) mem_2c_3521_264)))
 (let (($x560107 (= (_ bv0 8) ?x560106)))
 (not $x560107))))
(assert
 (= (_ bv31 64) strlen_3522_64))
(assert
 (= (_ bv31 64) strlen_4600_64))
(assert
 (let ((?x571230 ((_ extract 7 0) mem_7fffffffffef740_3703_248)))
 (let ((?x739750 ((_ extract 15 0) mem_7fffffffffef740_3703_248)))
 (let ((?x738789 ((_ extract 23 0) mem_7fffffffffef740_3703_248)))
 (let ((?x559648 ((_ extract 31 0) mem_7fffffffffef740_3703_248)))
 (let ((?x559724 ((_ extract 39 0) mem_7fffffffffef740_3703_248)))
 (let ((?x568056 ((_ extract 47 0) mem_7fffffffffef740_3703_248)))
 (let ((?x561887 ((_ extract 55 0) mem_7fffffffffef740_3703_248)))
 (let ((?x739953 ((_ extract 63 0) mem_7fffffffffef740_3703_248)))
 (let ((?x558944 ((_ extract 71 0) mem_7fffffffffef740_3703_248)))
 (let ((?x894365 ((_ extract 79 0) mem_7fffffffffef740_3703_248)))
 (let ((?x739154 ((_ extract 87 0) mem_7fffffffffef740_3703_248)))
 (let ((?x735031 ((_ extract 95 0) mem_7fffffffffef740_3703_248)))
 (let ((?x513321 ((_ extract 103 0) mem_7fffffffffef740_3703_248)))
 (let ((?x894773 ((_ extract 111 0) mem_7fffffffffef740_3703_248)))
 (let ((?x559613 ((_ extract 119 0) mem_7fffffffffef740_3703_248)))
 (let ((?x739446 ((_ extract 127 0) mem_7fffffffffef740_3703_248)))
 (let ((?x891214 ((_ extract 135 0) mem_7fffffffffef740_3703_248)))
 (let ((?x894604 ((_ extract 143 0) mem_7fffffffffef740_3703_248)))
 (let ((?x549275 ((_ extract 151 0) mem_7fffffffffef740_3703_248)))
 (let ((?x894960 ((_ extract 159 0) mem_7fffffffffef740_3703_248)))
 (let ((?x560762 ((_ extract 167 0) mem_7fffffffffef740_3703_248)))
 (let ((?x560749 ((_ extract 175 0) mem_7fffffffffef740_3703_248)))
 (let ((?x478875 ((_ extract 183 0) mem_7fffffffffef740_3703_248)))
 (let ((?x559185 ((_ extract 191 0) mem_7fffffffffef740_3703_248)))
 (let ((?x572032 ((_ extract 199 0) mem_7fffffffffef740_3703_248)))
 (let ((?x560058 ((_ extract 207 0) mem_7fffffffffef740_3703_248)))
 (let ((?x740050 ((_ extract 215 0) mem_7fffffffffef740_3703_248)))
 (let ((?x559360 ((_ extract 223 0) mem_7fffffffffef740_3703_248)))
 (let ((?x568076 ((_ extract 231 0) mem_7fffffffffef740_3703_248)))
 (let ((?x559628 ((_ extract 239 0) mem_7fffffffffef740_3703_248)))
 (let ((?x734059 ((_ extract 263 16) mem_2c_3521_264)))
 (let (($x481611 (= (_ bv1 64) strlen_3522_64)))
 (let ((?x739418 (ite $x481611 ?x734059 mem_7fffffffffef740_3703_248)))
 (let ((?x571389 ((_ extract 247 240) ?x739418)))
 (let ((?x571197 (concat ?x571389 ?x559628)))
 (let (($x735040 (= (_ bv2 64) strlen_3522_64)))
 (let ((?x738477 (ite $x735040 ?x734059 ?x571197)))
 (let ((?x738112 ((_ extract 247 232) ?x738477)))
 (let ((?x560069 (concat ?x738112 ?x568076)))
 (let (($x739146 (= (_ bv3 64) strlen_3522_64)))
 (let ((?x571237 (ite $x739146 ?x734059 ?x560069)))
 (let ((?x542622 ((_ extract 247 224) ?x571237)))
 (let ((?x738225 (concat ?x542622 ?x559360)))
 (let (($x480390 (= (_ bv4 64) strlen_3522_64)))
 (let ((?x690977 (ite $x480390 ?x734059 ?x738225)))
 (let ((?x563324 ((_ extract 247 216) ?x690977)))
 (let ((?x556745 (concat ?x563324 ?x740050)))
 (let (($x734818 (= (_ bv5 64) strlen_3522_64)))
 (let ((?x560821 (ite $x734818 ?x734059 ?x556745)))
 (let ((?x559836 ((_ extract 247 208) ?x560821)))
 (let ((?x559491 (concat ?x559836 ?x560058)))
 (let (($x478498 (= (_ bv6 64) strlen_3522_64)))
 (let ((?x559584 (ite $x478498 ?x734059 ?x559491)))
 (let ((?x559146 ((_ extract 247 200) ?x559584)))
 (let ((?x672455 (concat ?x559146 ?x572032)))
 (let (($x891128 (= (_ bv7 64) strlen_3522_64)))
 (let ((?x571223 (ite $x891128 ?x734059 ?x672455)))
 (let ((?x563568 ((_ extract 247 192) ?x571223)))
 (let ((?x734938 (concat ?x563568 ?x559185)))
 (let (($x494085 (= (_ bv8 64) strlen_3522_64)))
 (let ((?x734485 (ite $x494085 ?x734059 ?x734938)))
 (let ((?x738652 ((_ extract 247 184) ?x734485)))
 (let ((?x480798 (concat ?x738652 ?x478875)))
 (let (($x568012 (= (_ bv9 64) strlen_3522_64)))
 (let ((?x479979 (ite $x568012 ?x734059 ?x480798)))
 (let ((?x735034 ((_ extract 247 176) ?x479979)))
 (let ((?x477501 (concat ?x735034 ?x560749)))
 (let (($x481466 (= (_ bv10 64) strlen_3522_64)))
 (let ((?x555643 (ite $x481466 ?x734059 ?x477501)))
 (let ((?x478571 ((_ extract 247 168) ?x555643)))
 (let ((?x476822 (concat ?x478571 ?x560762)))
 (let (($x891792 (= (_ bv11 64) strlen_3522_64)))
 (let ((?x481318 (ite $x891792 ?x734059 ?x476822)))
 (let ((?x895098 ((_ extract 247 160) ?x481318)))
 (let ((?x571233 (concat ?x895098 ?x894960)))
 (let (($x572031 (= (_ bv12 64) strlen_3522_64)))
 (let ((?x571394 (ite $x572031 ?x734059 ?x571233)))
 (let ((?x895547 ((_ extract 247 152) ?x571394)))
 (let ((?x894789 (concat ?x895547 ?x549275)))
 (let (($x691019 (= (_ bv13 64) strlen_3522_64)))
 (let ((?x467353 (ite $x691019 ?x734059 ?x894789)))
 (let ((?x559726 ((_ extract 247 144) ?x467353)))
 (let ((?x734745 (concat ?x559726 ?x894604)))
 (let (($x480342 (= (_ bv14 64) strlen_3522_64)))
 (let ((?x568028 (ite $x480342 ?x734059 ?x734745)))
 (let ((?x893780 ((_ extract 247 136) ?x568028)))
 (let ((?x571345 (concat ?x893780 ?x891214)))
 (let (($x571416 (= (_ bv15 64) strlen_3522_64)))
 (let ((?x890788 (ite $x571416 ?x734059 ?x571345)))
 (let ((?x739400 ((_ extract 247 128) ?x890788)))
 (let ((?x483441 (concat ?x739400 ?x739446)))
 (let (($x481851 (= (_ bv16 64) strlen_3522_64)))
 (let ((?x734831 (ite $x481851 ?x734059 ?x483441)))
 (let ((?x475977 ((_ extract 247 120) ?x734831)))
 (let ((?x563030 (concat ?x475977 ?x559613)))
 (let (($x506063 (= (_ bv17 64) strlen_3522_64)))
 (let ((?x478587 (ite $x506063 ?x734059 ?x563030)))
 (let ((?x480853 ((_ extract 247 112) ?x478587)))
 (let ((?x895054 (concat ?x480853 ?x894773)))
 (let (($x739229 (= (_ bv18 64) strlen_3522_64)))
 (let ((?x560681 (ite $x739229 ?x734059 ?x895054)))
 (let ((?x734921 ((_ extract 247 104) ?x560681)))
 (let ((?x478511 (concat ?x734921 ?x513321)))
 (let (($x738352 (= (_ bv19 64) strlen_3522_64)))
 (let ((?x561123 (ite $x738352 ?x734059 ?x478511)))
 (let ((?x734862 ((_ extract 247 96) ?x561123)))
 (let ((?x556730 (concat ?x734862 ?x735031)))
 (let (($x734877 (= (_ bv20 64) strlen_3522_64)))
 (let ((?x734861 (ite $x734877 ?x734059 ?x556730)))
 (let ((?x560006 ((_ extract 247 88) ?x734861)))
 (let ((?x477551 (concat ?x560006 ?x739154)))
 (let (($x551187 (= (_ bv21 64) strlen_3522_64)))
 (let ((?x734712 (ite $x551187 ?x734059 ?x477551)))
 (let ((?x895847 ((_ extract 247 80) ?x734712)))
 (let ((?x894119 (concat ?x895847 ?x894365)))
 (let (($x739159 (= (_ bv22 64) strlen_3522_64)))
 (let ((?x894357 (ite $x739159 ?x734059 ?x894119)))
 (let ((?x475820 ((_ extract 247 72) ?x894357)))
 (let ((?x690978 (concat ?x475820 ?x558944)))
 (let (($x738552 (= (_ bv23 64) strlen_3522_64)))
 (let ((?x558965 (ite $x738552 ?x734059 ?x690978)))
 (let ((?x559551 ((_ extract 247 64) ?x558965)))
 (let ((?x568060 (concat ?x559551 ?x739953)))
 (let (($x481864 (= (_ bv24 64) strlen_3522_64)))
 (let ((?x739653 (ite $x481864 ?x734059 ?x568060)))
 (let ((?x559758 ((_ extract 247 56) ?x739653)))
 (let ((?x568124 (concat ?x559758 ?x561887)))
 (let (($x739578 (= (_ bv25 64) strlen_3522_64)))
 (let ((?x738212 (ite $x739578 ?x734059 ?x568124)))
 (let ((?x567914 ((_ extract 247 48) ?x738212)))
 (let ((?x560726 (concat ?x567914 ?x568056)))
 (let (($x479207 (= (_ bv26 64) strlen_3522_64)))
 (let ((?x559819 (ite $x479207 ?x734059 ?x560726)))
 (let ((?x740024 ((_ extract 247 40) ?x559819)))
 (let ((?x560012 (concat ?x740024 ?x559724)))
 (let (($x739819 (= (_ bv27 64) strlen_3522_64)))
 (let ((?x559385 (ite $x739819 ?x734059 ?x560012)))
 (let ((?x738133 ((_ extract 247 32) ?x559385)))
 (let ((?x738205 (concat ?x738133 ?x559648)))
 (let (($x666822 (= (_ bv28 64) strlen_3522_64)))
 (let ((?x559496 (ite $x666822 ?x734059 ?x738205)))
 (let ((?x568075 ((_ extract 247 24) ?x559496)))
 (let ((?x738597 (concat ?x568075 ?x738789)))
 (let (($x739335 (= (_ bv29 64) strlen_3522_64)))
 (let ((?x739741 (ite $x739335 ?x734059 ?x738597)))
 (let ((?x739602 ((_ extract 247 16) ?x739741)))
 (let ((?x567934 (concat ?x739602 ?x739750)))
 (let (($x513898 (= (_ bv30 64) strlen_3522_64)))
 (let ((?x738697 (ite $x513898 ?x734059 ?x567934)))
 (let ((?x560741 ((_ extract 247 8) ?x738697)))
 (let ((?x563079 (concat ?x560741 ?x571230)))
 (let (($x739127 (= (_ bv31 64) strlen_3522_64)))
 (let ((?x571364 (ite $x739127 ?x734059 ?x563079)))
 (let ((?x518326 ((_ extract 7 0) ?x571364)))
 (let (($x740429 (= (_ bv0 8) ?x518326)))
 (let ((?x467339 (ite $x740429 (_ bv576460752303355742 64) (_ bv576460752303355743 64))))
 (let ((?x740030 ((_ extract 15 8) ?x571364)))
 (let (($x740041 (= (_ bv0 8) ?x740030)))
 (let ((?x740304 (ite $x740041 (_ bv576460752303355741 64) ?x467339)))
 (let ((?x518266 ((_ extract 23 16) ?x571364)))
 (let (($x739970 (= (_ bv0 8) ?x518266)))
 (let ((?x739132 (ite $x739970 (_ bv576460752303355740 64) ?x740304)))
 (let ((?x740037 ((_ extract 31 24) ?x571364)))
 (let (($x739921 (= (_ bv0 8) ?x740037)))
 (let ((?x556681 (ite $x739921 (_ bv576460752303355739 64) ?x739132)))
 (let ((?x739612 ((_ extract 39 32) ?x571364)))
 (let (($x739687 (= (_ bv0 8) ?x739612)))
 (let ((?x739078 (ite $x739687 (_ bv576460752303355738 64) ?x556681)))
 (let ((?x738723 ((_ extract 47 40) ?x571364)))
 (let (($x691237 (= (_ bv0 8) ?x738723)))
 (let ((?x893945 (ite $x691237 (_ bv576460752303355737 64) ?x739078)))
 (let ((?x740266 ((_ extract 55 48) ?x571364)))
 (let (($x691077 (= (_ bv0 8) ?x740266)))
 (let ((?x893646 (ite $x691077 (_ bv576460752303355736 64) ?x893945)))
 (let ((?x571275 ((_ extract 63 56) ?x571364)))
 (let (($x690985 (= (_ bv0 8) ?x571275)))
 (let ((?x563156 (ite $x690985 (_ bv576460752303355735 64) ?x893646)))
 (let ((?x518278 ((_ extract 71 64) ?x571364)))
 (let (($x690916 (= (_ bv0 8) ?x518278)))
 (let ((?x480758 (ite $x690916 (_ bv576460752303355734 64) ?x563156)))
 (let ((?x738320 ((_ extract 79 72) ?x571364)))
 (let (($x645395 (= (_ bv0 8) ?x738320)))
 (let ((?x738709 (ite $x645395 (_ bv576460752303355733 64) ?x480758)))
 (let ((?x739919 ((_ extract 87 80) ?x571364)))
 (let (($x571310 (= (_ bv0 8) ?x739919)))
 (let ((?x518299 (ite $x571310 (_ bv576460752303355732 64) ?x738709)))
 (let ((?x562012 ((_ extract 95 88) ?x571364)))
 (let (($x571285 (= (_ bv0 8) ?x562012)))
 (let ((?x739031 (ite $x571285 (_ bv576460752303355731 64) ?x518299)))
 (let ((?x480877 ((_ extract 103 96) ?x571364)))
 (let (($x571270 (= (_ bv0 8) ?x480877)))
 (let ((?x563141 (ite $x571270 (_ bv576460752303355730 64) ?x739031)))
 (let ((?x563130 ((_ extract 111 104) ?x571364)))
 (let (($x571229 (= (_ bv0 8) ?x563130)))
 (let ((?x739895 (ite $x571229 (_ bv576460752303355729 64) ?x563141)))
 (let ((?x739441 ((_ extract 119 112) ?x571364)))
 (let (($x563578 (= (_ bv0 8) ?x739441)))
 (let ((?x895759 (ite $x563578 (_ bv576460752303355728 64) ?x739895)))
 (let ((?x739652 ((_ extract 127 120) ?x571364)))
 (let (($x561523 (= (_ bv0 8) ?x739652)))
 (let ((?x739343 (ite $x561523 (_ bv576460752303355727 64) ?x895759)))
 (let ((?x739965 ((_ extract 135 128) ?x571364)))
 (let (($x560156 (= (_ bv0 8) ?x739965)))
 (let ((?x739573 (ite $x560156 (_ bv576460752303355726 64) ?x739343)))
 (let ((?x734855 ((_ extract 143 136) ?x571364)))
 (let (($x560138 (= (_ bv0 8) ?x734855)))
 (let ((?x479972 (ite $x560138 (_ bv576460752303355725 64) ?x739573)))
 (let ((?x518288 ((_ extract 151 144) ?x571364)))
 (let (($x560086 (= (_ bv0 8) ?x518288)))
 (let ((?x563607 (ite $x560086 (_ bv576460752303355724 64) ?x479972)))
 (let ((?x739449 ((_ extract 159 152) ?x571364)))
 (let (($x560071 (= (_ bv0 8) ?x739449)))
 (let ((?x690994 (ite $x560071 (_ bv576460752303355723 64) ?x563607)))
 (let ((?x563149 ((_ extract 167 160) ?x571364)))
 (let (($x560051 (= (_ bv0 8) ?x563149)))
 (let ((?x467576 (ite $x560051 (_ bv576460752303355722 64) ?x690994)))
 (let ((?x518265 ((_ extract 175 168) ?x571364)))
 (let (($x559524 (= (_ bv0 8) ?x518265)))
 (let ((?x691203 (ite $x559524 (_ bv576460752303355721 64) ?x467576)))
 (let ((?x738694 ((_ extract 183 176) ?x571364)))
 (let (($x559504 (= (_ bv0 8) ?x738694)))
 (let ((?x738711 (ite $x559504 (_ bv576460752303355720 64) ?x691203)))
 (let ((?x739105 ((_ extract 191 184) ?x571364)))
 (let (($x559494 (= (_ bv0 8) ?x739105)))
 (let ((?x513444 (ite $x559494 (_ bv576460752303355719 64) ?x738711)))
 (let ((?x739038 ((_ extract 199 192) ?x571364)))
 (let (($x558855 (= (_ bv0 8) ?x739038)))
 (let ((?x477746 (ite $x558855 (_ bv576460752303355718 64) ?x513444)))
 (let ((?x740021 ((_ extract 207 200) ?x571364)))
 (let (($x556685 (= (_ bv0 8) ?x740021)))
 (let ((?x514399 (ite $x556685 (_ bv576460752303355717 64) ?x477746)))
 (let ((?x690984 ((_ extract 215 208) ?x571364)))
 (let (($x555727 (= (_ bv0 8) ?x690984)))
 (let ((?x739090 (ite $x555727 (_ bv576460752303355716 64) ?x514399)))
 (let ((?x738701 ((_ extract 223 216) ?x571364)))
 (let (($x551803 (= (_ bv0 8) ?x738701)))
 (let ((?x740226 (ite $x551803 (_ bv576460752303355715 64) ?x739090)))
 (let ((?x518070 ((_ extract 231 224) ?x571364)))
 (let (($x548473 (= (_ bv0 8) ?x518070)))
 (let ((?x739780 (ite $x548473 (_ bv576460752303355714 64) ?x740226)))
 (let ((?x563151 ((_ extract 239 232) ?x571364)))
 (let (($x459240 (= (_ bv0 8) ?x563151)))
 (let ((?x518079 (ite $x459240 (_ bv576460752303355713 64) ?x739780)))
 (let ((?x740431 ((_ extract 247 240) ?x571364)))
 (let (($x737737 (= (_ bv0 8) ?x740431)))
 (let ((?x738886 (ite $x737737 (_ bv576460752303355712 64) ?x518079)))
 (let ((?x560090 (bvsub ?x738886 (_ bv576460752303355712 64))))
 (= ?x560090 strlen_7070_64)))))))))))))))))))))))))))))))))))))))))))))))))))))))))))))))))))))))))))))))))))))))))))))))))))))))))))))))))))))))))))))))))))))))))))))))))))))))))))))))))))))))))))))))))))))))))))))))))))))))))))))))))))))))))))))))))))))))))))))))))))))))))
(minimize strlen_3522_64)
(maximize strlen_7070_64)
(minimize mem_7fffffffffeefa0_287_64)
(maximize mem_7fffffffffef420_167_8)
(maximize mem_7fffffffffef030_288_64)
(maximize filesize_file_0_/proc/self/loginuid_88_64)
(maximize mem_7fffffffffef048_337_32)
(maximize strncmp_ret_84_32)
(maximize mem_7fffffffffef038_268_64)
(maximize syscall_stub_newfstatat_118_64)
(minimize mem_7fffffffffef420_167_8)
(maximize syscall_stub_newfstatat_183_64)
(minimize syscall_stub_newfstatat_183_64)
(minimize strlen_7070_64)
(minimize strlen_83_64)
(minimize mem_7fffffffffef038_268_64)
(minimize mem_7fffffffffef048_337_32)
(maximize strlen_85_64)
(maximize access_3087_32)
(minimize syscall_stub_ioctl_94_32)
(minimize access_3087_32)
(maximize access_2090_32)
(maximize syscall_stub_ioctl_94_32)
(minimize args_1_8)
(minimize strlen_85_64)
(minimize access_2090_32)
(minimize mem_7fffffffffef058_382_64)
(minimize mem_7fffffffffeefa8_269_64)
(minimize mem_7fffffffffef425_823_64)
(minimize mem_7fffffffffef740_3703_248)
(minimize strlen_4600_64)
(maximize strncmp_ret_86_32)
(maximize mem_7fffffffffeefa8_269_64)
(minimize syscall_stub_newfstatat_118_64)
(minimize mem_7fffffffffeefc8_381_64)
(maximize mem_7fffffffffef425_823_64)
(maximize mem_2c_3521_264)
(minimize filesize_file_0_/proc/self/loginuid_88_64)
(maximize mem_7fffffffffef740_3703_248)
(maximize args_1_8)
(maximize mem_7fffffffffeefa0_287_64)
(maximize syscall_stub_readlink_157_64)
(minimize strlen_825_64)
(minimize mem_7fffffffffef030_288_64)
(maximize mem_7fffffffffeefc8_381_64)
(minimize strncmp_ret_84_32)
(maximize mem_7fffffffffef058_382_64)
(maximize strlen_4600_64)
(minimize mem_2c_3521_264)
(minimize strncmp_ret_86_32)
(minimize syscall_stub_readlink_157_64)
(check-sat)
(get-objectives)
